c b=11,c=1023
p cnf 32 305
2 3 4 5 6 7 8 9 10 11 -22 0
1 3 4 5 6 7 8 9 10 11 -23 0
1 2 4 5 6 7 8 9 10 11 -24 0
1 2 3 5 6 7 8 9 10 11 -25 0
1 2 3 4 6 7 8 9 10 11 -26 0
1 2 3 4 5 7 8 9 10 11 -27 0
1 2 3 4 5 6 8 9 10 11 -28 0
1 2 3 4 5 6 7 9 10 11 -29 0
1 2 3 4 5 6 7 8 10 11 -30 0
1 2 3 4 5 6 7 8 9 11 -31 0
2 3 4 5 6 7 8 9 10 -11 22 0
2 -11 23 0
2 3 -11 24 0
2 3 4 -11 25 0
2 3 4 5 -11 26 0
2 3 4 5 6 -11 27 0
2 3 4 5 6 7 -11 28 0
2 3 4 5 6 7 8 -11 29 0
2 3 4 5 6 7 8 9 -11 30 0
2 3 4 5 6 7 8 9 10 -11 31 0
1 2 3 4 5 6 7 8 9 10 -21 0
2 3 4 5 6 7 8 9 10 -32 0
1 -10 11 22 0
11 -32 0
1 -10 -11 -22 0
-10 -11 32 0
1 2 3 4 5 6 7 8 9 -10 21 0
1 2 -10 23 0
1 2 3 -10 24 0
1 2 3 4 -10 25 0
1 2 3 4 5 -10 26 0
1 2 3 4 5 6 -10 27 0
1 2 3 4 5 6 7 -10 28 0
1 2 3 4 5 6 7 8 -10 29 0
1 2 3 4 5 6 7 8 9 -10 30 0
1 2 3 4 5 6 7 8 9 -10 -31 0
1 2 3 4 5 6 7 8 9 -20 0
1 -9 11 22 0
1 -9 -11 -22 0
-9 -11 32 0
-9 10 21 0
-9 10 -31 0
-9 -10 -21 0
-9 -10 31 0
1 2 3 4 5 6 7 8 -9 20 0
1 2 -9 23 0
1 2 3 -9 24 0
1 2 3 4 -9 25 0
1 2 3 4 5 -9 26 0
1 2 3 4 5 6 -9 27 0
1 2 3 4 5 6 7 -9 28 0
1 2 3 4 5 6 7 8 -9 29 0
1 2 3 4 5 6 7 8 -9 -30 0
1 2 3 4 5 6 7 8 -19 0
1 -8 11 22 0
1 -8 -11 -22 0
-8 -11 32 0
-8 10 21 0
-8 10 -31 0
-8 -10 -21 0
-8 -10 31 0
-8 9 20 0
-8 9 -30 0
-8 -9 -20 0
-8 -9 30 0
1 2 3 4 5 6 7 -8 19 0
1 2 -8 23 0
1 2 3 -8 24 0
1 2 3 4 -8 25 0
1 2 3 4 5 -8 26 0
1 2 3 4 5 6 -8 27 0
1 2 3 4 5 6 7 -8 28 0
1 2 3 4 5 6 7 -8 -29 0
1 2 3 4 5 6 7 -18 0
1 -7 11 22 0
1 -7 -11 -22 0
-7 -11 32 0
-7 10 21 0
-7 10 -31 0
-7 -10 -21 0
-7 -10 31 0
-7 9 20 0
-7 9 -30 0
-7 -9 -20 0
-7 -9 30 0
-7 8 19 0
-7 8 -29 0
-7 -8 -19 0
-7 -8 29 0
1 2 3 4 5 6 -7 18 0
1 2 -7 23 0
1 2 3 -7 24 0
1 2 3 4 -7 25 0
1 2 3 4 5 -7 26 0
1 2 3 4 5 6 -7 27 0
1 2 3 4 5 6 -7 -28 0
1 2 3 4 5 6 -17 0
1 -6 11 22 0
1 -6 -11 -22 0
-6 -11 32 0
-6 10 21 0
-6 10 -31 0
-6 -10 -21 0
-6 -10 31 0
-6 9 20 0
-6 9 -30 0
-6 -9 -20 0
-6 -9 30 0
-6 8 19 0
-6 8 -29 0
-6 -8 -19 0
-6 -8 29 0
-6 7 18 0
-6 7 -28 0
-6 -7 -18 0
-6 -7 28 0
1 2 3 4 5 -6 17 0
1 2 -6 23 0
1 2 3 -6 24 0
1 2 3 4 -6 25 0
1 2 3 4 5 -6 26 0
1 2 3 4 5 -6 -27 0
1 2 3 4 5 -16 0
1 -5 11 22 0
1 -5 -11 -22 0
-5 -11 32 0
-5 10 21 0
-5 10 -31 0
-5 -10 -21 0
-5 -10 31 0
-5 9 20 0
-5 9 -30 0
-5 -9 -20 0
-5 -9 30 0
-5 8 19 0
-5 8 -29 0
-5 -8 -19 0
-5 -8 29 0
-5 7 18 0
-5 7 -28 0
-5 -7 -18 0
-5 -7 28 0
-5 6 17 0
-5 6 -27 0
-5 -6 -17 0
-5 -6 27 0
1 2 3 4 -5 16 0
1 2 -5 23 0
1 2 3 -5 24 0
1 2 3 4 -5 25 0
1 2 3 4 -5 -26 0
1 2 3 4 -15 0
1 -4 11 22 0
1 -4 -11 -22 0
-4 -11 32 0
-4 10 21 0
-4 10 -31 0
-4 -10 -21 0
-4 -10 31 0
-4 9 20 0
-4 9 -30 0
-4 -9 -20 0
-4 -9 30 0
-4 8 19 0
-4 8 -29 0
-4 -8 -19 0
-4 -8 29 0
-4 7 18 0
-4 7 -28 0
-4 -7 -18 0
-4 -7 28 0
-4 6 17 0
-4 6 -27 0
-4 -6 -17 0
-4 -6 27 0
-4 5 16 0
-4 5 -26 0
-4 -5 -16 0
-4 -5 26 0
1 2 3 -4 15 0
1 2 -4 23 0
1 2 3 -4 24 0
1 2 3 -4 -25 0
1 2 3 -14 0
1 -3 11 22 0
1 -3 -11 -22 0
-3 -11 32 0
-3 10 21 0
-3 10 -31 0
-3 -10 -21 0
-3 -10 31 0
-3 9 20 0
-3 9 -30 0
-3 -9 -20 0
-3 -9 30 0
-3 8 19 0
-3 8 -29 0
-3 -8 -19 0
-3 -8 29 0
-3 7 18 0
-3 7 -28 0
-3 -7 -18 0
-3 -7 28 0
-3 6 17 0
-3 6 -27 0
-3 -6 -17 0
-3 -6 27 0
-3 5 16 0
-3 5 -26 0
-3 -5 -16 0
-3 -5 26 0
-3 4 15 0
-3 4 -25 0
-3 -4 -15 0
-3 -4 25 0
1 2 -3 14 0
1 2 -3 23 0
1 2 -3 -24 0
1 2 -13 0
1 -2 11 22 0
1 -2 -11 -22 0
-2 -11 32 0
-2 10 21 0
-2 10 -31 0
-2 -10 -21 0
-2 -10 31 0
-2 9 20 0
-2 9 -30 0
-2 -9 -20 0
-2 -9 30 0
-2 8 19 0
-2 8 -29 0
-2 -8 -19 0
-2 -8 29 0
-2 7 18 0
-2 7 -28 0
-2 -7 -18 0
-2 -7 28 0
-2 6 17 0
-2 6 -27 0
-2 -6 -17 0
-2 -6 27 0
-2 5 16 0
-2 5 -26 0
-2 -5 -16 0
-2 -5 26 0
-2 4 15 0
-2 4 -25 0
-2 -4 -15 0
-2 -4 25 0
-2 3 14 0
-2 3 -24 0
-2 -3 -14 0
-2 -3 24 0
1 -2 13 0
1 -2 -23 0
1 -12 0
-1 11 -22 0
-1 2 11 -23 0
-1 3 11 -24 0
-1 4 11 -25 0
-1 5 11 -26 0
-1 6 11 -27 0
-1 7 11 -28 0
-1 8 11 -29 0
-1 9 11 -30 0
-1 10 11 -31 0
-1 -11 22 0
-1 10 21 0
-1 -10 11 31 0
2 3 4 5 6 7 8 9 -10 -11 -31 0
-1 -10 -21 0
-1 9 20 0
-1 -9 11 30 0
2 3 4 5 6 7 8 -9 -11 -30 0
-1 -9 -20 0
-1 8 19 0
-1 -8 11 29 0
2 3 4 5 6 7 -8 -11 -29 0
-1 -8 -19 0
-1 7 18 0
-1 -7 11 28 0
2 3 4 5 6 -7 -11 -28 0
-1 -7 -18 0
-1 6 17 0
-1 -6 11 27 0
2 3 4 5 -6 -11 -27 0
-1 -6 -17 0
-1 5 16 0
-1 -5 11 26 0
2 3 4 -5 -11 -26 0
-1 -5 -16 0
-1 4 15 0
-1 -4 11 25 0
2 3 -4 -11 -25 0
-1 -4 -15 0
-1 3 14 0
-1 -3 11 24 0
2 -3 -11 -24 0
-1 -3 -14 0
-1 2 13 0
-1 -2 11 23 0
-2 -11 -23 0
-1 -2 -13 0
-1 12 0
